[runlim] version:		1.10
[runlim] time limit:		311040000 seconds
[runlim] real time limit:	900 seconds
[runlim] space limit:		6000 MB
[runlim] argv[0]:		python3
[runlim] argv[1]:		cp.py
[runlim] argv[2]:		scen05
[runlim] start:			Sun Jan 18 12:30:45 2026
[runlim] main pid:		436
[runlim] sample:		9.9 time, 10.1 real, 560.4 MB
[runlim] sample:		19.9 time, 20.1 real, 1418.7 MB
[runlim] sample:		29.9 time, 30.1 real, 2167.5 MB
[runlim] sample:		39.8 time, 40.1 real, 3713.1 MB
Building CP model...
Build time: 13.21s
Solving CP Optimizer...
 ! --------------------------------------------------- CP Optimizer 22.1.1.0 --
 ! Minimization problem - 15816 variables, 1645516 constraints
 ! Presolve      : 1645918 extractables eliminated
 ! LogVerbosity         = Terse
 ! Initial process time : 17.13s (17.07s extraction + 0.07s propagation)
 !  . Log search space  : 15816.0 (before), 15816.0 (after)
 !  . Memory usage      : 213.6 MB (before), 213.6 MB (after)
 ! Using parallel search with 4 workers.
 ! ----------------------------------------------------------------------------
 !          Best Branches  Non-fixed    W       Branch decision
                        0      15816                 -
 + New bound is 0
[runlim] sample:		56.0 time, 49.6 real, 5807.1 MB
[runlim] end:			Sun Jan 18 12:31:34 2026
[runlim] status:		out of memory
[runlim] result:		3
[runlim] children:		370
[runlim] real:			49.88 seconds
[runlim] time:			56.80 seconds
[runlim] space:			6182.6 MB
[runlim] samples:		502
